n= 4
m= 30
1000
2000
2500
3000
675	48	6
1246	54	6
1117	40	5
790	40	8
1859	35	7
502	81	9
699	72	8
272	48	6
1604	49	7
1907	45	5
1335	35	7
1530	56	7
793	81	9
1615	54	9
974	56	8
1432	63	7
693	35	5
790	81	9
755	35	7
1712	72	9
1585	54	9
1676	35	5
1085	45	9
942	72	9
1146	40	8
1447	30	5
832	64	8
688	35	7
1138	49	7
1136	48	6
